p edge 100 495
e 1 17
e 1 31
e 1 53
e 1 60
e 1 65
e 1 76
e 1 96
e 1 98
e 1 99
e 2 12
e 2 20
e 2 33
e 2 42
e 2 58
e 2 100
e 3 21
e 3 27
e 3 41
e 3 45
e 3 46
e 3 48
e 3 55
e 3 64
e 3 72
e 3 73
e 3 79
e 3 81
e 3 99
e 4 5
e 4 9
e 4 27
e 4 40
e 4 41
e 4 42
e 4 66
e 4 97
e 4 98
e 5 20
e 5 38
e 5 45
e 5 51
e 5 53
e 5 55
e 5 72
e 5 73
e 5 78
e 5 79
e 5 85
e 6 18
e 6 21
e 6 37
e 6 58
e 6 83
e 6 91
e 7 20
e 7 38
e 7 39
e 7 47
e 7 50
e 7 77
e 7 83
e 7 99
e 8 9
e 8 17
e 8 22
e 8 28
e 8 44
e 8 49
e 8 54
e 8 55
e 8 63
e 8 73
e 8 90
e 8 100
e 9 11
e 9 16
e 9 18
e 9 30
e 9 60
e 9 72
e 9 82
e 9 86
e 9 88
e 9 90
e 9 93
e 9 97
e 10 40
e 10 62
e 10 64
e 10 65
e 10 81
e 10 100
e 11 12
e 11 18
e 11 40
e 11 45
e 11 46
e 11 67
e 11 70
e 11 72
e 11 77
e 11 88
e 11 90
e 11 94
e 12 54
e 12 60
e 12 79
e 12 82
e 12 85
e 13 17
e 13 18
e 13 33
e 13 45
e 13 59
e 13 63
e 13 69
e 13 73
e 13 78
e 13 81
e 13 84
e 14 20
e 14 37
e 14 54
e 14 63
e 14 66
e 14 85
e 14 92
e 15 16
e 15 20
e 15 30
e 15 34
e 15 79
e 15 92
e 15 93
e 15 95
e 16 18
e 16 34
e 16 36
e 16 44
e 16 46
e 16 73
e 16 77
e 16 86
e 16 88
e 16 96
e 16 97
e 17 32
e 17 34
e 17 42
e 17 47
e 17 56
e 17 66
e 17 93
e 18 31
e 18 32
e 18 33
e 18 44
e 18 51
e 18 60
e 18 71
e 19 38
e 19 54
e 19 67
e 19 68
e 19 70
e 19 78
e 19 87
e 20 38
e 20 51
e 20 56
e 20 61
e 20 62
e 20 84
e 21 27
e 21 29
e 21 30
e 21 33
e 21 38
e 21 40
e 21 43
e 21 49
e 21 55
e 21 61
e 21 75
e 22 39
e 22 44
e 22 47
e 22 63
e 22 81
e 22 82
e 22 91
e 22 95
e 22 96
e 22 98
e 23 25
e 23 45
e 23 57
e 23 72
e 23 95
e 24 25
e 24 29
e 24 36
e 24 42
e 24 71
e 24 85
e 24 89
e 24 93
e 24 94
e 25 70
e 25 73
e 25 76
e 26 30
e 26 40
e 26 63
e 26 64
e 26 69
e 26 72
e 26 73
e 26 83
e 26 89
e 26 94
e 27 29
e 27 32
e 27 60
e 27 66
e 27 82
e 27 86
e 27 87
e 27 88
e 27 98
e 28 32
e 28 44
e 28 84
e 29 47
e 29 70
e 29 79
e 29 100
e 30 33
e 30 35
e 30 39
e 30 63
e 30 71
e 30 83
e 30 99
e 31 45
e 31 55
e 31 57
e 31 65
e 31 97
e 31 100
e 32 68
e 32 74
e 32 76
e 32 97
e 33 44
e 33 61
e 33 63
e 33 71
e 33 82
e 33 86
e 33 97
e 34 50
e 34 57
e 34 61
e 34 62
e 34 72
e 34 77
e 35 37
e 35 39
e 35 46
e 35 60
e 35 87
e 36 50
e 36 51
e 36 55
e 36 56
e 36 58
e 36 63
e 36 92
e 36 95
e 37 38
e 37 48
e 37 57
e 37 58
e 37 64
e 37 90
e 37 97
e 38 45
e 38 55
e 38 62
e 38 70
e 38 91
e 39 53
e 39 56
e 39 58
e 39 60
e 39 82
e 39 89
e 39 90
e 39 93
e 40 48
e 40 76
e 40 77
e 40 81
e 41 76
e 41 82
e 41 86
e 41 88
e 41 89
e 41 94
e 41 96
e 41 97
e 42 44
e 42 51
e 42 54
e 42 56
e 42 66
e 42 74
e 42 75
e 42 81
e 42 96
e 43 44
e 43 45
e 43 52
e 43 56
e 43 62
e 43 68
e 43 78
e 43 82
e 44 46
e 44 60
e 44 61
e 44 72
e 44 90
e 44 96
e 45 54
e 45 69
e 45 74
e 45 77
e 45 80
e 45 90
e 45 98
e 45 99
e 45 100
e 46 54
e 46 56
e 46 66
e 46 67
e 46 77
e 46 90
e 46 97
e 46 99
e 47 56
e 47 59
e 47 86
e 47 88
e 47 98
e 48 61
e 48 76
e 48 80
e 49 66
e 49 67
e 49 71
e 49 75
e 49 90
e 49 96
e 50 54
e 50 74
e 50 92
e 51 55
e 51 64
e 51 68
e 51 69
e 51 75
e 51 93
e 52 61
e 52 68
e 52 74
e 52 83
e 52 86
e 52 87
e 52 89
e 52 97
e 52 98
e 52 99
e 53 55
e 53 59
e 53 61
e 53 63
e 53 72
e 53 77
e 54 60
e 54 61
e 54 82
e 54 93
e 54 94
e 55 78
e 55 79
e 55 84
e 55 85
e 55 89
e 55 99
e 56 72
e 56 80
e 56 90
e 57 68
e 57 69
e 57 95
e 58 67
e 58 81
e 58 97
e 59 65
e 59 84
e 59 85
e 60 66
e 60 79
e 60 80
e 60 81
e 61 88
e 61 91
e 61 92
e 62 80
e 62 81
e 62 90
e 63 71
e 63 88
e 63 89
e 63 94
e 63 96
e 64 71
e 64 73
e 64 82
e 64 97
e 65 83
e 65 92
e 65 95
e 65 99
e 66 72
e 66 91
e 67 85
e 68 89
e 68 92
e 69 71
e 69 73
e 69 87
e 69 90
e 69 100
e 70 73
e 70 74
e 70 79
e 70 91
e 71 76
e 71 77
e 71 79
e 71 93
e 72 93
e 73 74
e 73 84
e 73 98
e 74 96
e 74 100
e 75 83
e 75 95
e 76 78
e 76 80
e 77 86
e 78 85
e 78 92
e 79 84
e 79 89
e 79 90
e 80 82
e 80 93
e 80 95
e 81 86
e 81 91
e 82 98
e 83 89
e 84 86
e 84 94
e 84 97
e 85 91
e 85 94
e 85 96
e 85 97
e 86 87
e 86 94
e 87 98
e 87 100
e 88 90
e 88 97
e 92 100
e 95 99
e 95 100
e 99 100
